; Options: -in -smt2
(set-option :produce-unsat-assumptions true)

(declare-fun start!2945 () Bool)

(assert start!2945)

(declare-fun b_free!43 () Bool)

(declare-fun b_next!43 () Bool)

(assert (=> start!2945 (= b_free!43 (not b_next!43))))

(declare-fun tp!65 () Bool)

(declare-fun b_and!369 () Bool)

(assert (=> start!2945 (= tp!65 b_and!369)))

(declare-fun b!16405 () Bool)

(declare-fun res!12998 () Bool)

(declare-fun e!9082 () Bool)

(assert (=> b!16405 (=> (not res!12998) (not e!9082))))

(declare-fun P!6 () Int)

(declare-datatypes ((array!1379 0))(
  ( (array!1380 (arr!608 (Array (_ BitVec 32) (_ BitVec 32))) (size!608 (_ BitVec 32))) )
))
(declare-fun a!13 () array!1379)

(declare-fun dynLambda!59 (Int (_ BitVec 32)) Bool)

(assert (=> b!16405 (= res!12998 (dynLambda!59 P!6 (select (arr!608 a!13) #b00000000000000000000000000010000)))))

(declare-fun b!16406 () Bool)

(declare-fun res!13001 () Bool)

(assert (=> b!16406 (=> (not res!13001) (not e!9082))))

(assert (=> b!16406 (= res!13001 (dynLambda!59 P!6 (select (arr!608 a!13) #b00000000000000000000000000000011)))))

(declare-fun b!16407 () Bool)

(declare-fun res!12995 () Bool)

(assert (=> b!16407 (=> (not res!12995) (not e!9082))))

(assert (=> b!16407 (= res!12995 (dynLambda!59 P!6 (select (arr!608 a!13) #b00000000000000000000000000001101)))))

(declare-fun b!16408 () Bool)

(declare-fun res!13000 () Bool)

(assert (=> b!16408 (=> (not res!13000) (not e!9082))))

(assert (=> b!16408 (= res!13000 (dynLambda!59 P!6 (select (arr!608 a!13) #b00000000000000000000000000000100)))))

(declare-fun b!16409 () Bool)

(assert (=> b!16409 (= e!9082 (bvsge #b00000000000000000000000000010010 (size!608 a!13)))))

(declare-fun b!16410 () Bool)

(declare-fun res!13007 () Bool)

(assert (=> b!16410 (=> (not res!13007) (not e!9082))))

(assert (=> b!16410 (= res!13007 (dynLambda!59 P!6 (select (arr!608 a!13) #b00000000000000000000000000001010)))))

(declare-fun b!16411 () Bool)

(declare-fun res!13009 () Bool)

(assert (=> b!16411 (=> (not res!13009) (not e!9082))))

(assert (=> b!16411 (= res!13009 (dynLambda!59 P!6 (select (arr!608 a!13) #b00000000000000000000000000001011)))))

(declare-fun b!16413 () Bool)

(declare-fun res!12993 () Bool)

(assert (=> b!16413 (=> (not res!12993) (not e!9082))))

(assert (=> b!16413 (= res!12993 (dynLambda!59 P!6 (select (arr!608 a!13) #b00000000000000000000000000001001)))))

(declare-fun b!16414 () Bool)

(declare-fun res!13006 () Bool)

(assert (=> b!16414 (=> (not res!13006) (not e!9082))))

(assert (=> b!16414 (= res!13006 (dynLambda!59 P!6 (select (arr!608 a!13) #b00000000000000000000000000000000)))))

(declare-fun b!16415 () Bool)

(declare-fun res!13005 () Bool)

(assert (=> b!16415 (=> (not res!13005) (not e!9082))))

(assert (=> b!16415 (= res!13005 (dynLambda!59 P!6 (select (arr!608 a!13) #b00000000000000000000000000010001)))))

(declare-fun b!16416 () Bool)

(declare-fun res!12994 () Bool)

(assert (=> b!16416 (=> (not res!12994) (not e!9082))))

(assert (=> b!16416 (= res!12994 (dynLambda!59 P!6 (select (arr!608 a!13) #b00000000000000000000000000001111)))))

(declare-fun b!16417 () Bool)

(declare-fun res!13003 () Bool)

(assert (=> b!16417 (=> (not res!13003) (not e!9082))))

(assert (=> b!16417 (= res!13003 (dynLambda!59 P!6 (select (arr!608 a!13) #b00000000000000000000000000000001)))))

(declare-fun b!16418 () Bool)

(declare-fun res!13004 () Bool)

(assert (=> b!16418 (=> (not res!13004) (not e!9082))))

(assert (=> b!16418 (= res!13004 (dynLambda!59 P!6 (select (arr!608 a!13) #b00000000000000000000000000001100)))))

(declare-fun b!16419 () Bool)

(declare-fun res!13002 () Bool)

(assert (=> b!16419 (=> (not res!13002) (not e!9082))))

(assert (=> b!16419 (= res!13002 (dynLambda!59 P!6 (select (arr!608 a!13) #b00000000000000000000000000000101)))))

(declare-fun b!16420 () Bool)

(declare-fun res!13008 () Bool)

(assert (=> b!16420 (=> (not res!13008) (not e!9082))))

(assert (=> b!16420 (= res!13008 (dynLambda!59 P!6 (select (arr!608 a!13) #b00000000000000000000000000000010)))))

(declare-fun b!16421 () Bool)

(declare-fun res!12996 () Bool)

(assert (=> b!16421 (=> (not res!12996) (not e!9082))))

(assert (=> b!16421 (= res!12996 (dynLambda!59 P!6 (select (arr!608 a!13) #b00000000000000000000000000000111)))))

(declare-fun b!16422 () Bool)

(declare-fun res!13011 () Bool)

(assert (=> b!16422 (=> (not res!13011) (not e!9082))))

(assert (=> b!16422 (= res!13011 (dynLambda!59 P!6 (select (arr!608 a!13) #b00000000000000000000000000001110)))))

(declare-fun b!16423 () Bool)

(declare-fun res!13010 () Bool)

(assert (=> b!16423 (=> (not res!13010) (not e!9082))))

(assert (=> b!16423 (= res!13010 (dynLambda!59 P!6 (select (arr!608 a!13) #b00000000000000000000000000001000)))))

(declare-fun res!12999 () Bool)

(assert (=> start!2945 (=> (not res!12999) (not e!9082))))

(assert (=> start!2945 (= res!12999 (= (size!608 a!13) #b00000000000000000000000000010100))))

(assert (=> start!2945 e!9082))

(declare-fun array_inv!556 (array!1379) Bool)

(assert (=> start!2945 (array_inv!556 a!13)))

(assert (=> start!2945 tp!65))

(declare-fun b!16412 () Bool)

(declare-fun res!12997 () Bool)

(assert (=> b!16412 (=> (not res!12997) (not e!9082))))

(assert (=> b!16412 (= res!12997 (dynLambda!59 P!6 (select (arr!608 a!13) #b00000000000000000000000000000110)))))

(assert (= (and start!2945 res!12999) b!16414))

(assert (= (and b!16414 res!13006) b!16417))

(assert (= (and b!16417 res!13003) b!16420))

(assert (= (and b!16420 res!13008) b!16406))

(assert (= (and b!16406 res!13001) b!16408))

(assert (= (and b!16408 res!13000) b!16419))

(assert (= (and b!16419 res!13002) b!16412))

(assert (= (and b!16412 res!12997) b!16421))

(assert (= (and b!16421 res!12996) b!16423))

(assert (= (and b!16423 res!13010) b!16413))

(assert (= (and b!16413 res!12993) b!16410))

(assert (= (and b!16410 res!13007) b!16411))

(assert (= (and b!16411 res!13009) b!16418))

(assert (= (and b!16418 res!13004) b!16407))

(assert (= (and b!16407 res!12995) b!16422))

(assert (= (and b!16422 res!13011) b!16416))

(assert (= (and b!16416 res!12994) b!16405))

(assert (= (and b!16405 res!12998) b!16415))

(assert (= (and b!16415 res!13005) b!16409))

(declare-fun b_lambda!5627 () Bool)

(assert (=> (not b_lambda!5627) (not b!16412)))

(declare-fun t!517 () Bool)

(declare-fun tb!327 () Bool)

(assert (=> (and start!2945 (= P!6 P!6) t!517) tb!327))

(declare-fun result!327 () Bool)

(assert (=> tb!327 (= result!327 true)))

(assert (=> b!16412 t!517))

(declare-fun b_and!371 () Bool)

(assert (= b_and!369 (and (=> t!517 result!327) b_and!371)))

(declare-fun b_lambda!5629 () Bool)

(assert (=> (not b_lambda!5629) (not b!16414)))

(declare-fun t!519 () Bool)

(declare-fun tb!329 () Bool)

(assert (=> (and start!2945 (= P!6 P!6) t!519) tb!329))

(declare-fun result!329 () Bool)

(assert (=> tb!329 (= result!329 true)))

(assert (=> b!16414 t!519))

(declare-fun b_and!373 () Bool)

(assert (= b_and!371 (and (=> t!519 result!329) b_and!373)))

(declare-fun b_lambda!5631 () Bool)

(assert (=> (not b_lambda!5631) (not b!16423)))

(declare-fun t!521 () Bool)

(declare-fun tb!331 () Bool)

(assert (=> (and start!2945 (= P!6 P!6) t!521) tb!331))

(declare-fun result!331 () Bool)

(assert (=> tb!331 (= result!331 true)))

(assert (=> b!16423 t!521))

(declare-fun b_and!375 () Bool)

(assert (= b_and!373 (and (=> t!521 result!331) b_and!375)))

(declare-fun b_lambda!5633 () Bool)

(assert (=> (not b_lambda!5633) (not b!16420)))

(declare-fun t!523 () Bool)

(declare-fun tb!333 () Bool)

(assert (=> (and start!2945 (= P!6 P!6) t!523) tb!333))

(declare-fun result!333 () Bool)

(assert (=> tb!333 (= result!333 true)))

(assert (=> b!16420 t!523))

(declare-fun b_and!377 () Bool)

(assert (= b_and!375 (and (=> t!523 result!333) b_and!377)))

(declare-fun b_lambda!5635 () Bool)

(assert (=> (not b_lambda!5635) (not b!16422)))

(declare-fun t!525 () Bool)

(declare-fun tb!335 () Bool)

(assert (=> (and start!2945 (= P!6 P!6) t!525) tb!335))

(declare-fun result!335 () Bool)

(assert (=> tb!335 (= result!335 true)))

(assert (=> b!16422 t!525))

(declare-fun b_and!379 () Bool)

(assert (= b_and!377 (and (=> t!525 result!335) b_and!379)))

(declare-fun b_lambda!5637 () Bool)

(assert (=> (not b_lambda!5637) (not b!16416)))

(declare-fun t!527 () Bool)

(declare-fun tb!337 () Bool)

(assert (=> (and start!2945 (= P!6 P!6) t!527) tb!337))

(declare-fun result!337 () Bool)

(assert (=> tb!337 (= result!337 true)))

(assert (=> b!16416 t!527))

(declare-fun b_and!381 () Bool)

(assert (= b_and!379 (and (=> t!527 result!337) b_and!381)))

(declare-fun b_lambda!5639 () Bool)

(assert (=> (not b_lambda!5639) (not b!16415)))

(declare-fun t!529 () Bool)

(declare-fun tb!339 () Bool)

(assert (=> (and start!2945 (= P!6 P!6) t!529) tb!339))

(declare-fun result!339 () Bool)

(assert (=> tb!339 (= result!339 true)))

(assert (=> b!16415 t!529))

(declare-fun b_and!383 () Bool)

(assert (= b_and!381 (and (=> t!529 result!339) b_and!383)))

(declare-fun b_lambda!5641 () Bool)

(assert (=> (not b_lambda!5641) (not b!16418)))

(declare-fun t!531 () Bool)

(declare-fun tb!341 () Bool)

(assert (=> (and start!2945 (= P!6 P!6) t!531) tb!341))

(declare-fun result!341 () Bool)

(assert (=> tb!341 (= result!341 true)))

(assert (=> b!16418 t!531))

(declare-fun b_and!385 () Bool)

(assert (= b_and!383 (and (=> t!531 result!341) b_and!385)))

(declare-fun b_lambda!5643 () Bool)

(assert (=> (not b_lambda!5643) (not b!16411)))

(declare-fun t!533 () Bool)

(declare-fun tb!343 () Bool)

(assert (=> (and start!2945 (= P!6 P!6) t!533) tb!343))

(declare-fun result!343 () Bool)

(assert (=> tb!343 (= result!343 true)))

(assert (=> b!16411 t!533))

(declare-fun b_and!387 () Bool)

(assert (= b_and!385 (and (=> t!533 result!343) b_and!387)))

(declare-fun b_lambda!5645 () Bool)

(assert (=> (not b_lambda!5645) (not b!16417)))

(declare-fun t!535 () Bool)

(declare-fun tb!345 () Bool)

(assert (=> (and start!2945 (= P!6 P!6) t!535) tb!345))

(declare-fun result!345 () Bool)

(assert (=> tb!345 (= result!345 true)))

(assert (=> b!16417 t!535))

(declare-fun b_and!389 () Bool)

(assert (= b_and!387 (and (=> t!535 result!345) b_and!389)))

(declare-fun b_lambda!5647 () Bool)

(assert (=> (not b_lambda!5647) (not b!16406)))

(declare-fun t!537 () Bool)

(declare-fun tb!347 () Bool)

(assert (=> (and start!2945 (= P!6 P!6) t!537) tb!347))

(declare-fun result!347 () Bool)

(assert (=> tb!347 (= result!347 true)))

(assert (=> b!16406 t!537))

(declare-fun b_and!391 () Bool)

(assert (= b_and!389 (and (=> t!537 result!347) b_and!391)))

(declare-fun b_lambda!5649 () Bool)

(assert (=> (not b_lambda!5649) (not b!16421)))

(declare-fun t!539 () Bool)

(declare-fun tb!349 () Bool)

(assert (=> (and start!2945 (= P!6 P!6) t!539) tb!349))

(declare-fun result!349 () Bool)

(assert (=> tb!349 (= result!349 true)))

(assert (=> b!16421 t!539))

(declare-fun b_and!393 () Bool)

(assert (= b_and!391 (and (=> t!539 result!349) b_and!393)))

(declare-fun b_lambda!5651 () Bool)

(assert (=> (not b_lambda!5651) (not b!16413)))

(declare-fun t!541 () Bool)

(declare-fun tb!351 () Bool)

(assert (=> (and start!2945 (= P!6 P!6) t!541) tb!351))

(declare-fun result!351 () Bool)

(assert (=> tb!351 (= result!351 true)))

(assert (=> b!16413 t!541))

(declare-fun b_and!395 () Bool)

(assert (= b_and!393 (and (=> t!541 result!351) b_and!395)))

(declare-fun b_lambda!5653 () Bool)

(assert (=> (not b_lambda!5653) (not b!16407)))

(declare-fun t!543 () Bool)

(declare-fun tb!353 () Bool)

(assert (=> (and start!2945 (= P!6 P!6) t!543) tb!353))

(declare-fun result!353 () Bool)

(assert (=> tb!353 (= result!353 true)))

(assert (=> b!16407 t!543))

(declare-fun b_and!397 () Bool)

(assert (= b_and!395 (and (=> t!543 result!353) b_and!397)))

(declare-fun b_lambda!5655 () Bool)

(assert (=> (not b_lambda!5655) (not b!16419)))

(declare-fun t!545 () Bool)

(declare-fun tb!355 () Bool)

(assert (=> (and start!2945 (= P!6 P!6) t!545) tb!355))

(declare-fun result!355 () Bool)

(assert (=> tb!355 (= result!355 true)))

(assert (=> b!16419 t!545))

(declare-fun b_and!399 () Bool)

(assert (= b_and!397 (and (=> t!545 result!355) b_and!399)))

(declare-fun b_lambda!5657 () Bool)

(assert (=> (not b_lambda!5657) (not b!16408)))

(declare-fun t!547 () Bool)

(declare-fun tb!357 () Bool)

(assert (=> (and start!2945 (= P!6 P!6) t!547) tb!357))

(declare-fun result!357 () Bool)

(assert (=> tb!357 (= result!357 true)))

(assert (=> b!16408 t!547))

(declare-fun b_and!401 () Bool)

(assert (= b_and!399 (and (=> t!547 result!357) b_and!401)))

(declare-fun b_lambda!5659 () Bool)

(assert (=> (not b_lambda!5659) (not b!16405)))

(declare-fun t!549 () Bool)

(declare-fun tb!359 () Bool)

(assert (=> (and start!2945 (= P!6 P!6) t!549) tb!359))

(declare-fun result!359 () Bool)

(assert (=> tb!359 (= result!359 true)))

(assert (=> b!16405 t!549))

(declare-fun b_and!403 () Bool)

(assert (= b_and!401 (and (=> t!549 result!359) b_and!403)))

(declare-fun b_lambda!5661 () Bool)

(assert (=> (not b_lambda!5661) (not b!16410)))

(declare-fun t!551 () Bool)

(declare-fun tb!361 () Bool)

(assert (=> (and start!2945 (= P!6 P!6) t!551) tb!361))

(declare-fun result!361 () Bool)

(assert (=> tb!361 (= result!361 true)))

(assert (=> b!16410 t!551))

(declare-fun b_and!405 () Bool)

(assert (= b_and!403 (and (=> t!551 result!361) b_and!405)))

(declare-fun m!22843 () Bool)

(assert (=> start!2945 m!22843))

(declare-fun m!22845 () Bool)

(assert (=> b!16417 m!22845))

(assert (=> b!16417 m!22845))

(declare-fun m!22847 () Bool)

(assert (=> b!16417 m!22847))

(declare-fun m!22849 () Bool)

(assert (=> b!16419 m!22849))

(assert (=> b!16419 m!22849))

(declare-fun m!22851 () Bool)

(assert (=> b!16419 m!22851))

(declare-fun m!22853 () Bool)

(assert (=> b!16414 m!22853))

(assert (=> b!16414 m!22853))

(declare-fun m!22855 () Bool)

(assert (=> b!16414 m!22855))

(declare-fun m!22857 () Bool)

(assert (=> b!16405 m!22857))

(assert (=> b!16405 m!22857))

(declare-fun m!22859 () Bool)

(assert (=> b!16405 m!22859))

(declare-fun m!22861 () Bool)

(assert (=> b!16410 m!22861))

(assert (=> b!16410 m!22861))

(declare-fun m!22863 () Bool)

(assert (=> b!16410 m!22863))

(declare-fun m!22865 () Bool)

(assert (=> b!16420 m!22865))

(assert (=> b!16420 m!22865))

(declare-fun m!22867 () Bool)

(assert (=> b!16420 m!22867))

(declare-fun m!22869 () Bool)

(assert (=> b!16412 m!22869))

(assert (=> b!16412 m!22869))

(declare-fun m!22871 () Bool)

(assert (=> b!16412 m!22871))

(declare-fun m!22873 () Bool)

(assert (=> b!16415 m!22873))

(assert (=> b!16415 m!22873))

(declare-fun m!22875 () Bool)

(assert (=> b!16415 m!22875))

(declare-fun m!22877 () Bool)

(assert (=> b!16413 m!22877))

(assert (=> b!16413 m!22877))

(declare-fun m!22879 () Bool)

(assert (=> b!16413 m!22879))

(declare-fun m!22881 () Bool)

(assert (=> b!16408 m!22881))

(assert (=> b!16408 m!22881))

(declare-fun m!22883 () Bool)

(assert (=> b!16408 m!22883))

(declare-fun m!22885 () Bool)

(assert (=> b!16421 m!22885))

(assert (=> b!16421 m!22885))

(declare-fun m!22887 () Bool)

(assert (=> b!16421 m!22887))

(declare-fun m!22889 () Bool)

(assert (=> b!16418 m!22889))

(assert (=> b!16418 m!22889))

(declare-fun m!22891 () Bool)

(assert (=> b!16418 m!22891))

(declare-fun m!22893 () Bool)

(assert (=> b!16411 m!22893))

(assert (=> b!16411 m!22893))

(declare-fun m!22895 () Bool)

(assert (=> b!16411 m!22895))

(declare-fun m!22897 () Bool)

(assert (=> b!16407 m!22897))

(assert (=> b!16407 m!22897))

(declare-fun m!22899 () Bool)

(assert (=> b!16407 m!22899))

(declare-fun m!22901 () Bool)

(assert (=> b!16416 m!22901))

(assert (=> b!16416 m!22901))

(declare-fun m!22903 () Bool)

(assert (=> b!16416 m!22903))

(declare-fun m!22905 () Bool)

(assert (=> b!16423 m!22905))

(assert (=> b!16423 m!22905))

(declare-fun m!22907 () Bool)

(assert (=> b!16423 m!22907))

(declare-fun m!22909 () Bool)

(assert (=> b!16422 m!22909))

(assert (=> b!16422 m!22909))

(declare-fun m!22911 () Bool)

(assert (=> b!16422 m!22911))

(declare-fun m!22913 () Bool)

(assert (=> b!16406 m!22913))

(assert (=> b!16406 m!22913))

(declare-fun m!22915 () Bool)

(assert (=> b!16406 m!22915))

(check-sat (not b_lambda!5661) (not b_lambda!5637) (not b_lambda!5645) (not b_lambda!5633) (not b_lambda!5653) (not b_lambda!5657) (not start!2945) (not b_lambda!5655) (not b_lambda!5639) (not b_lambda!5641) (not b_lambda!5643) (not b_lambda!5627) (not b_next!43) b_and!405 (not b_lambda!5649) (not b_lambda!5647) (not b_lambda!5651) (not b_lambda!5659) (not b_lambda!5629) (not b_lambda!5635) (not b_lambda!5631))
(check-sat b_and!405 (not b_next!43))
